
Gurobi 8.1.0 (mac64, Python) logging started Wed Jun  5 11:05:32 2019

Academic license - for non-commercial use only
Optimize a model with 0 rows, 18 columns and 0 nonzeros
Coefficient statistics:
  Matrix range     [0e+00, 0e+00]
  Objective range  [1e+01, 1e+01]
  Bounds range     [0e+00, 0e+00]
  RHS range        [0e+00, 0e+00]
Presolve removed 0 rows and 18 columns
Presolve time: 0.01s
Presolve: All rows and columns removed
Iteration    Objective       Primal Inf.    Dual Inf.      Time
       0    0.0000000e+00   0.000000e+00   0.000000e+00      0s

Solved in 0 iterations and 0.02 seconds
Optimal objective  0.000000000e+00
Optimize a model with 3 rows, 18 columns and 9 nonzeros
Coefficient statistics:
  Matrix range     [1e+00, 1e+00]
  Objective range  [1e+01, 1e+01]
  Bounds range     [0e+00, 0e+00]
  RHS range        [1e+01, 1e+01]
Iteration    Objective       Primal Inf.    Dual Inf.      Time
       0    0.0000000e+00   3.000000e+01   0.000000e+00      0s
       3    3.0000000e+02   0.000000e+00   0.000000e+00      0s

Solved in 3 iterations and 0.01 seconds
Optimal objective  3.000000000e+02

Gurobi 8.1.0 (mac64, Python) logging started Fri Jun  7 02:00:42 2019

Academic license - for non-commercial use only
Optimize a model with 3 rows, 9 columns and 9 nonzeros
Coefficient statistics:
  Matrix range     [1e+00, 1e+00]
  Objective range  [1e+01, 1e+01]
  Bounds range     [0e+00, 0e+00]
  RHS range        [1e+01, 1e+01]
Presolve removed 3 rows and 9 columns
Presolve time: 0.01s
Presolve: All rows and columns removed
Iteration    Objective       Primal Inf.    Dual Inf.      Time
       0    3.0000000e+02   0.000000e+00   0.000000e+00      0s

Solved in 0 iterations and 0.02 seconds
Optimal objective  3.000000000e+02
Optimize a model with 3 rows, 27 columns and 9 nonzeros
Coefficient statistics:
  Matrix range     [1e+00, 1e+00]
  Objective range  [1e+01, 1e+01]
  Bounds range     [0e+00, 0e+00]
  RHS range        [1e+01, 1e+01]
Presolve removed 3 rows and 27 columns
Presolve time: 0.01s
Presolve: All rows and columns removed
Iteration    Objective       Primal Inf.    Dual Inf.      Time
       0    3.0000000e+02   0.000000e+00   0.000000e+00      0s

Solved in 0 iterations and 0.01 seconds
Optimal objective  3.000000000e+02
Optimize a model with 3 rows, 9 columns and 9 nonzeros
Coefficient statistics:
  Matrix range     [1e+00, 1e+00]
  Objective range  [1e+01, 1e+01]
  Bounds range     [0e+00, 0e+00]
  RHS range        [1e+01, 1e+01]
Presolve removed 3 rows and 9 columns
Presolve time: 0.03s
Presolve: All rows and columns removed
Iteration    Objective       Primal Inf.    Dual Inf.      Time
       0    3.0000000e+02   0.000000e+00   0.000000e+00      0s

Solved in 0 iterations and 0.05 seconds
Optimal objective  3.000000000e+02
Optimize a model with 3 rows, 9 columns and 9 nonzeros
Coefficient statistics:
  Matrix range     [1e+00, 1e+00]
  Objective range  [1e+01, 1e+01]
  Bounds range     [0e+00, 0e+00]
  RHS range        [1e+01, 1e+01]
Presolve removed 3 rows and 9 columns
Presolve time: 0.01s
Presolve: All rows and columns removed
Iteration    Objective       Primal Inf.    Dual Inf.      Time
       0    3.0000000e+02   0.000000e+00   0.000000e+00      0s

Solved in 0 iterations and 0.01 seconds
Optimal objective  3.000000000e+02
Optimize a model with 3 rows, 9 columns and 9 nonzeros
Coefficient statistics:
  Matrix range     [1e+00, 1e+00]
  Objective range  [1e+01, 1e+01]
  Bounds range     [0e+00, 0e+00]
  RHS range        [1e+01, 1e+01]
Presolve removed 3 rows and 9 columns
Presolve time: 0.01s
Presolve: All rows and columns removed
Iteration    Objective       Primal Inf.    Dual Inf.      Time
       0    2.0000000e+02   0.000000e+00   0.000000e+00      0s

Solved in 0 iterations and 0.01 seconds
Optimal objective  2.000000000e+02
Optimize a model with 3 rows, 9 columns and 9 nonzeros
Coefficient statistics:
  Matrix range     [1e+00, 1e+00]
  Objective range  [1e+01, 1e+01]
  Bounds range     [0e+00, 0e+00]
  RHS range        [1e+01, 1e+01]
Presolve removed 3 rows and 9 columns
Presolve time: 0.01s
Presolve: All rows and columns removed
Iteration    Objective       Primal Inf.    Dual Inf.      Time
       0    3.0000000e+02   0.000000e+00   0.000000e+00      0s

Solved in 0 iterations and 0.02 seconds
Optimal objective  3.000000000e+02
Optimize a model with 3 rows, 12 columns and 9 nonzeros
Variable types: 9 continuous, 3 integer (3 binary)
Coefficient statistics:
  Matrix range     [1e+00, 1e+00]
  Objective range  [1e+01, 1e+01]
  Bounds range     [1e+00, 1e+00]
  RHS range        [1e+01, 1e+01]
Presolve removed 3 rows and 12 columns
Presolve time: 0.00s
Presolve: All rows and columns removed

Explored 0 nodes (0 simplex iterations) in 0.02 seconds
Thread count was 1 (of 4 available processors)

Solution count 1: 300 

Optimal solution found (tolerance 1.00e-04)
Best objective 3.000000000000e+02, best bound 3.000000000000e+02, gap 0.0000%
Optimize a model with 12 rows, 12 columns and 27 nonzeros
Variable types: 9 continuous, 3 integer (3 binary)
Coefficient statistics:
  Matrix range     [1e+00, 1e+01]
  Objective range  [1e+01, 1e+01]
  Bounds range     [1e+00, 1e+00]
  RHS range        [1e+01, 1e+01]
Presolve removed 12 rows and 12 columns
Presolve time: 0.00s
Presolve: All rows and columns removed

Explored 0 nodes (0 simplex iterations) in 0.02 seconds
Thread count was 1 (of 4 available processors)

Solution count 1: 300 

Optimal solution found (tolerance 1.00e-04)
Best objective 3.000000000000e+02, best bound 3.000000000000e+02, gap 0.0000%
Optimize a model with 12 rows, 12 columns and 27 nonzeros
Variable types: 9 continuous, 3 integer (3 binary)
Coefficient statistics:
  Matrix range     [1e+00, 1e+01]
  Objective range  [1e+01, 1e+03]
  Bounds range     [1e+00, 1e+00]
  RHS range        [1e+01, 1e+01]

Loaded MIP start with objective 3300

Presolve removed 8 rows and 6 columns
Presolve time: 0.00s
Presolved: 4 rows, 6 columns, 9 nonzeros
Variable types: 3 continuous, 3 integer (3 binary)

Root relaxation: objective 1.300000e+03, 3 iterations, 0.00 seconds

    Nodes    |    Current Node    |     Objective Bounds      |     Work
 Expl Unexpl |  Obj  Depth IntInf | Incumbent    BestBd   Gap | It/Node Time

*    0     0               0    1300.0000000 1300.00000  0.00%     -    0s

Explored 0 nodes (3 simplex iterations) in 0.04 seconds
Thread count was 4 (of 4 available processors)

Solution count 2: 1300 3300 

Optimal solution found (tolerance 1.00e-04)
Best objective 1.300000000000e+03, best bound 1.300000000000e+03, gap 0.0000%
Optimize a model with 24 rows, 24 columns and 54 nonzeros
Variable types: 18 continuous, 6 integer (6 binary)
Coefficient statistics:
  Matrix range     [1e+00, 1e+01]
  Objective range  [0e+00, 0e+00]
  Bounds range     [1e+00, 1e+00]
  RHS range        [1e+01, 1e+01]
Presolve removed 24 rows and 24 columns
Presolve time: 0.00s
Presolve: All rows and columns removed

Explored 0 nodes (0 simplex iterations) in 0.02 seconds
Thread count was 1 (of 4 available processors)

Solution count 1: 0 

Optimal solution found (tolerance 1.00e-04)
Best objective 0.000000000000e+00, best bound 0.000000000000e+00, gap 0.0000%
Optimize a model with 24 rows, 24 columns and 54 nonzeros
Variable types: 18 continuous, 6 integer (6 binary)
Coefficient statistics:
  Matrix range     [1e+00, 1e+01]
  Objective range  [1e+01, 1e+03]
  Bounds range     [1e+00, 1e+00]
  RHS range        [1e+01, 1e+01]
Presolve removed 20 rows and 18 columns
Presolve time: 0.00s
Presolved: 4 rows, 6 columns, 9 nonzeros
Variable types: 3 continuous, 3 integer (3 binary)

Root relaxation: objective 2.600000e+03, 3 iterations, 0.00 seconds

    Nodes    |    Current Node    |     Objective Bounds      |     Work
 Expl Unexpl |  Obj  Depth IntInf | Incumbent    BestBd   Gap | It/Node Time

*    0     0               0    2600.0000000 2600.00000  0.00%     -    0s

Explored 0 nodes (3 simplex iterations) in 0.03 seconds
Thread count was 4 (of 4 available processors)

Solution count 1: 2600 

Optimal solution found (tolerance 1.00e-04)
Best objective 2.600000000000e+03, best bound 2.600000000000e+03, gap 0.0000%
Optimize a model with 48 rows, 48 columns and 108 nonzeros
Variable types: 36 continuous, 12 integer (12 binary)
Coefficient statistics:
  Matrix range     [1e+00, 1e+01]
  Objective range  [1e+01, 1e+03]
  Bounds range     [1e+00, 1e+00]
  RHS range        [1e+01, 1e+01]

MIP start produced solution with objective 2600 (0.02s)
Loaded MIP start with objective 2600

Presolve removed 44 rows and 42 columns
Presolve time: 0.00s
Presolved: 4 rows, 6 columns, 9 nonzeros
Variable types: 3 continuous, 3 integer (3 binary)

Root relaxation: cutoff, 2 iterations, 0.00 seconds

    Nodes    |    Current Node    |     Objective Bounds      |     Work
 Expl Unexpl |  Obj  Depth IntInf | Incumbent    BestBd   Gap | It/Node Time

     0     0     cutoff    0      2600.00000 2600.00000  0.00%     -    0s

Explored 0 nodes (2 simplex iterations) in 0.05 seconds
Thread count was 4 (of 4 available processors)

Solution count 1: 2600 

Optimal solution found (tolerance 1.00e-04)
Best objective 2.600000000000e+03, best bound 2.600000000000e+03, gap 0.0000%
Optimize a model with 48 rows, 48 columns and 108 nonzeros
Variable types: 36 continuous, 12 integer (12 binary)
Coefficient statistics:
  Matrix range     [1e+00, 1e+01]
  Objective range  [1e+01, 1e+03]
  Bounds range     [1e+00, 1e+00]
  RHS range        [1e+01, 1e+01]

Loaded MIP start with objective 6600

Presolve removed 44 rows and 42 columns
Presolve time: 0.00s
Presolved: 4 rows, 6 columns, 9 nonzeros
Found heuristic solution: objective 3600.0000000
Variable types: 3 continuous, 3 integer (3 binary)

Root relaxation: objective 2.600000e+03, 3 iterations, 0.00 seconds

    Nodes    |    Current Node    |     Objective Bounds      |     Work
 Expl Unexpl |  Obj  Depth IntInf | Incumbent    BestBd   Gap | It/Node Time

*    0     0               0    2600.0000000 2600.00000  0.00%     -    0s

Explored 0 nodes (3 simplex iterations) in 0.03 seconds
Thread count was 4 (of 4 available processors)

Solution count 3: 2600 3600 4600 

Optimal solution found (tolerance 1.00e-04)
Best objective 2.600000000000e+03, best bound 2.600000000000e+03, gap 0.0000%
Optimize a model with 54 rows, 54 columns and 132 nonzeros
Variable types: 42 continuous, 12 integer (12 binary)
Coefficient statistics:
  Matrix range     [1e+00, 1e+01]
  Objective range  [1e+01, 1e+03]
  Bounds range     [1e+00, 1e+00]
  RHS range        [1e+01, 1e+01]
Found heuristic solution: objective 5600.0000000
Presolve removed 50 rows and 48 columns
Presolve time: 0.00s
Presolved: 4 rows, 6 columns, 9 nonzeros
Found heuristic solution: objective 4600.0000000
Variable types: 3 continuous, 3 integer (3 binary)

Root relaxation: objective 2.600000e+03, 3 iterations, 0.00 seconds

    Nodes    |    Current Node    |     Objective Bounds      |     Work
 Expl Unexpl |  Obj  Depth IntInf | Incumbent    BestBd   Gap | It/Node Time

*    0     0               0    2600.0000000 2600.00000  0.00%     -    0s

Explored 0 nodes (3 simplex iterations) in 0.03 seconds
Thread count was 4 (of 4 available processors)

Solution count 2: 2600 4600 

Optimal solution found (tolerance 1.00e-04)
Best objective 2.600000000000e+03, best bound 2.600000000000e+03, gap 0.0000%
Optimize a model with 30 rows, 30 columns and 78 nonzeros
Variable types: 24 continuous, 6 integer (6 binary)
Coefficient statistics:
  Matrix range     [1e+00, 1e+01]
  Objective range  [5e+00, 1e+03]
  Bounds range     [1e+00, 1e+00]
  RHS range        [1e+01, 1e+01]
Presolve removed 26 rows and 24 columns
Presolve time: 0.00s
Presolved: 4 rows, 6 columns, 9 nonzeros
Variable types: 3 continuous, 3 integer (3 binary)

Root relaxation: objective 2.900000e+03, 3 iterations, 0.00 seconds

    Nodes    |    Current Node    |     Objective Bounds      |     Work
 Expl Unexpl |  Obj  Depth IntInf | Incumbent    BestBd   Gap | It/Node Time

*    0     0               0    2900.0000000 2900.00000  0.00%     -    0s

Explored 0 nodes (3 simplex iterations) in 0.02 seconds
Thread count was 4 (of 4 available processors)

Solution count 1: 2900 

Optimal solution found (tolerance 1.00e-04)
Best objective 2.900000000000e+03, best bound 2.900000000000e+03, gap 0.0000%
Optimize a model with 60 rows, 60 columns and 156 nonzeros
Variable types: 48 continuous, 12 integer (12 binary)
Coefficient statistics:
  Matrix range     [1e+00, 1e+01]
  Objective range  [5e+00, 1e+03]
  Bounds range     [1e+00, 1e+00]
  RHS range        [1e+01, 1e+01]

MIP start produced solution with objective 2900 (0.01s)
Loaded MIP start with objective 2900

Presolve removed 56 rows and 54 columns
Presolve time: 0.00s
Presolved: 4 rows, 6 columns, 9 nonzeros
Variable types: 3 continuous, 3 integer (3 binary)

Root relaxation: cutoff, 2 iterations, 0.00 seconds

    Nodes    |    Current Node    |     Objective Bounds      |     Work
 Expl Unexpl |  Obj  Depth IntInf | Incumbent    BestBd   Gap | It/Node Time

     0     0     cutoff    0      2900.00000 2900.00000  0.00%     -    0s

Explored 0 nodes (2 simplex iterations) in 0.03 seconds
Thread count was 4 (of 4 available processors)

Solution count 1: 2900 

Optimal solution found (tolerance 1.00e-04)
Best objective 2.900000000000e+03, best bound 2.900000000000e+03, gap 0.0000%
Optimize a model with 16 rows, 28 columns and 36 nonzeros
Variable types: 24 continuous, 4 integer (4 binary)
Coefficient statistics:
  Matrix range     [1e+00, 1e+01]
  Objective range  [5e+00, 1e+03]
  Bounds range     [1e+00, 1e+00]
  RHS range        [1e+01, 1e+01]
Presolve removed 16 rows and 28 columns
Presolve time: 0.00s
Presolve: All rows and columns removed

Explored 0 nodes (0 simplex iterations) in 0.02 seconds
Thread count was 1 (of 4 available processors)

Solution count 1: 2600 

Optimal solution found (tolerance 1.00e-04)
Best objective 2.600000000000e+03, best bound 2.600000000000e+03, gap 0.0000%
Optimize a model with 16 rows, 32 columns and 44 nonzeros
Variable types: 24 continuous, 8 integer (8 binary)
Coefficient statistics:
  Matrix range     [1e+00, 1e+01]
  Objective range  [5e+00, 1e+03]
  Bounds range     [1e+00, 1e+00]
  RHS range        [1e+01, 1e+01]
Presolve removed 16 rows and 32 columns
Presolve time: 0.00s
Presolve: All rows and columns removed

Explored 0 nodes (0 simplex iterations) in 0.02 seconds
Thread count was 1 (of 4 available processors)

Solution count 1: 2600 

Optimal solution found (tolerance 1.00e-04)
Best objective 2.600000000000e+03, best bound 2.600000000000e+03, gap 0.0000%
Optimize a model with 16 rows, 36 columns and 50 nonzeros
Variable types: 28 continuous, 8 integer (8 binary)
Coefficient statistics:
  Matrix range     [1e+00, 1e+01]
  Objective range  [5e+00, 1e+03]
  Bounds range     [1e+00, 1e+00]
  RHS range        [1e+01, 1e+01]
Presolve removed 16 rows and 36 columns
Presolve time: 0.00s
Presolve: All rows and columns removed

Explored 0 nodes (0 simplex iterations) in 0.01 seconds
Thread count was 1 (of 4 available processors)

Solution count 1: 2600 

Optimal solution found (tolerance 1.00e-04)
Best objective 2.600000000000e+03, best bound 2.600000000000e+03, gap 0.0000%
Optimize a model with 16 rows, 36 columns and 50 nonzeros
Variable types: 28 continuous, 8 integer (8 binary)
Coefficient statistics:
  Matrix range     [1e+00, 1e+01]
  Objective range  [5e+00, 1e+03]
  Bounds range     [1e+00, 1e+00]
  RHS range        [1e+01, 1e+01]
Presolve removed 16 rows and 36 columns
Presolve time: 0.00s
Presolve: All rows and columns removed

Explored 0 nodes (0 simplex iterations) in 0.01 seconds
Thread count was 1 (of 4 available processors)

Solution count 1: 2600 

Optimal solution found (tolerance 1.00e-04)
Best objective 2.600000000000e+03, best bound 2.600000000000e+03, gap 0.0000%
Optimize a model with 17 rows, 36 columns and 51 nonzeros
Variable types: 28 continuous, 8 integer (8 binary)
Coefficient statistics:
  Matrix range     [1e+00, 1e+01]
  Objective range  [5e+00, 1e+03]
  Bounds range     [1e+00, 1e+00]
  RHS range        [1e+01, 2e+01]
Presolve removed 17 rows and 36 columns
Presolve time: 0.00s
Presolve: All rows and columns removed

Explored 0 nodes (0 simplex iterations) in 0.02 seconds
Thread count was 1 (of 4 available processors)

Solution count 1: 2700 

Optimal solution found (tolerance 1.00e-04)
Best objective 2.700000000000e+03, best bound 2.700000000000e+03, gap 0.0000%
Optimize a model with 34 rows, 36 columns and 102 nonzeros
Variable types: 28 continuous, 8 integer (8 binary)
Coefficient statistics:
  Matrix range     [1e+00, 1e+01]
  Objective range  [5e+00, 1e+03]
  Bounds range     [1e+00, 1e+00]
  RHS range        [1e+01, 3e+01]

MIP start did not produce a new incumbent solution

Presolve removed 0 rows and 12 columns
Presolve time: 0.00s

Explored 0 nodes (0 simplex iterations) in 0.01 seconds
Thread count was 1 (of 4 available processors)

Solution count 0

Model is infeasible
Best objective -, best bound -, gap -
Optimize a model with 17 rows, 38 columns and 51 nonzeros
Variable types: 30 continuous, 8 integer (8 binary)
Coefficient statistics:
  Matrix range     [1e+00, 1e+01]
  Objective range  [5e+00, 1e+03]
  Bounds range     [1e+00, 1e+00]
  RHS range        [1e+01, 3e+01]
Presolve removed 17 rows and 38 columns
Presolve time: 0.00s
Presolve: All rows and columns removed

Explored 0 nodes (0 simplex iterations) in 0.03 seconds
Thread count was 1 (of 4 available processors)

Solution count 1: 2850 

Optimal solution found (tolerance 1.00e-04)
Best objective 2.850000000000e+03, best bound 2.850000000000e+03, gap 0.0000%
